************************************************************************
file with basedata            : J1205_.BAS
initial value random generator: 1997267476
************************************************************************
projects                      :  1
jobs (incl. supersource/sink ):  122
horizon                       :  670
RESOURCES
  - renewable                 :  4   R
  - nonrenewable              :  0   N
  - doubly constrained        :  0   D
************************************************************************
PROJECT INFORMATION:
pronr.  #jobs rel.date duedate tardcost  MPM-Time
    1    120      0       72       85       72
************************************************************************
PRECEDENCE RELATIONS:
jobnr.    #modes  #successors   successors
   1        1          3           2   3   4
   2        1          3           5  11  35
   3        1          2           7  64
   4        1          3           6   8  14
   5        1          3          22  33  40
   6        1          2          29  42
   7        1          2          18  68
   8        1          3           9  10  12
   9        1          3          20  50  59
  10        1          3          15  63  69
  11        1          1          27
  12        1          3          13  17  39
  13        1          1          47
  14        1          3          16  31 109
  15        1          2          26  29
  16        1          1          65
  17        1          1          34
  18        1          3          19  21  24
  19        1          2          45  76
  20        1          2          28 103
  21        1          1         118
  22        1          3          23  25  38
  23        1          2          30  70
  24        1          3          32  91  96
  25        1          1          42
  26        1          2          41 114
  27        1          2          37  53
  28        1          3          43  46  61
  29        1          3          36  77 117
  30        1          2          51  56
  31        1          2          48  60
  32        1          1          57
  33        1          3          67  71  74
  34        1          2          44  86
  35        1          1          79
  36        1          1          75
  37        1          1          52
  38        1          2          52 108
  39        1          2          57 119
  40        1          3          54  66  84
  41        1          2          55  88
  42        1          2          52  74
  43        1          2          73  88
  44        1          1          87
  45        1          1          94
  46        1          2          82  89
  47        1          1          49
  48        1          1         112
  49        1          1          53
  50        1          2         101 111
  51        1          1         104
  52        1          3          55  83  85
  53        1          1          58
  54        1          1          95
  55        1          1          97
  56        1          1          62
  57        1          1          79
  58        1          1          65
  59        1          1         112
  60        1          1         107
  61        1          1          83
  62        1          1         100
  63        1          1          99
  64        1          2          72  80
  65        1          1          71
  66        1          1         102
  67        1          1          93
  68        1          2          98 119
  69        1          1         111
  70        1          2          78 115
  71        1          1         104
  72        1          1          88
  73        1          1         112
  74        1          1          79
  75        1          1          81
  76        1          1          84
  77        1          1          90
  78        1          1         110
  79        1          1         101
  80        1          1         102
  81        1          2         100 106
  82        1          2         104 113
  83        1          1          92
  84        1          2          96 118
  85        1          1          91
  86        1          2          87 103
  87        1          1         107
  88        1          1         117
  89        1          2          99 121
  90        1          1         103
  91        1          1         102
  92        1          1         115
  93        1          1          97
  94        1          2          97 108
  95        1          1         105
  96        1          1         115
  97        1          1         116
  98        1          1          99
  99        1          1         110
 100        1          1         105
 101        1          1         113
 102        1          1         105
 103        1          1         108
 104        1          1         107
 105        1          1         110
 106        1          1         109
 107        1          1         121
 108        1          1         109
 109        1          1         111
 110        1          1         116
 111        1          1         119
 112        1          1         117
 113        1          1         114
 114        1          1         116
 115        1          1         121
 116        1          1         120
 117        1          1         120
 118        1          1         120
 119        1          1         122
 120        1          1         122
 121        1          1         122
 122        1          0        
************************************************************************
REQUESTS/DURATIONS:
jobnr. mode duration  R 1  R 2  R 3  R 4
------------------------------------------------------------------------
  1      1     0       0    0    0    0
  2      1     7       0    0    0    1
  3      1     2       0    0    0    6
  4      1     5       9    0    0    0
  5      1    10       0    3    0    0
  6      1     2       0    0    0    9
  7      1    10       0    5    0    0
  8      1     1       0    0    5    0
  9      1     9       5    0    0    0
 10      1     5       0    2    0    0
 11      1     7       0    0    3    0
 12      1     4       0    0   10    0
 13      1     8       3    0    0    0
 14      1    10       4    0    0    0
 15      1     5       1    0    0    0
 16      1     4       0    0    0    3
 17      1     1       0    3    0    0
 18      1     8       0    0    0    8
 19      1     2       4    0    0    0
 20      1     1       0    0    0    4
 21      1    10       0    0    0    2
 22      1     7       0    0    7    0
 23      1     7       3    0    0    0
 24      1     5       7    0    0    0
 25      1     1       8    0    0    0
 26      1    10       0    0    9    0
 27      1     8       6    0    0    0
 28      1     7       0    9    0    0
 29      1     6       0    8    0    0
 30      1     2       0    0    4    0
 31      1     9       0    1    0    0
 32      1    10       4    0    0    0
 33      1     4       9    0    0    0
 34      1     5       0    2    0    0
 35      1     9       0    0    0   10
 36      1     6       7    0    0    0
 37      1     8       0    0    0    3
 38      1     1       0    5    0    0
 39      1     4       8    0    0    0
 40      1     8       2    0    0    0
 41      1     3       0    2    0    0
 42      1     2       1    0    0    0
 43      1     5       0    0    0   10
 44      1     5       0    0    0    2
 45      1     8       4    0    0    0
 46      1     4       0    0    0    3
 47      1     9       3    0    0    0
 48      1     4       0    0    7    0
 49      1     6       0    8    0    0
 50      1     2       0    0    8    0
 51      1     2       0    0    0    2
 52      1     6       0   10    0    0
 53      1     2       0    3    0    0
 54      1     2       5    0    0    0
 55      1     2       0    0    0    6
 56      1     6       0    0    0    5
 57      1     1       0    0    9    0
 58      1     2       0    3    0    0
 59      1     9       0    0    0    4
 60      1     4       0    0    0    2
 61      1     7       0    8    0    0
 62      1     6       0    0    0    4
 63      1     7       9    0    0    0
 64      1    10       0    0    6    0
 65      1     7       0    0    8    0
 66      1     5       0    0    0    3
 67      1     2       6    0    0    0
 68      1     2       0    4    0    0
 69      1     4       5    0    0    0
 70      1     7       0    3    0    0
 71      1     5       0    0    0    3
 72      1     2       3    0    0    0
 73      1    10       3    0    0    0
 74      1    10       0    0    0   10
 75      1     4       0    0    8    0
 76      1     8       0    0    0    9
 77      1     6       0    0    6    0
 78      1     6       4    0    0    0
 79      1     9       8    0    0    0
 80      1    10       0    0    4    0
 81      1     5       0    0    0    7
 82      1     4       0    0   10    0
 83      1     9       0    1    0    0
 84      1     9       0    0    4    0
 85      1     6       2    0    0    0
 86      1    10       0    0    0    1
 87      1     1       0   10    0    0
 88      1     2       0    6    0    0
 89      1     5       0    0    6    0
 90      1    10       0    0    0    9
 91      1    10       0    0    0    4
 92      1     7       0   10    0    0
 93      1     7       0    0    0    6
 94      1     8       0    9    0    0
 95      1     5       4    0    0    0
 96      1     2       0    5    0    0
 97      1     3       7    0    0    0
 98      1     4       0    0    6    0
 99      1    10       8    0    0    0
100      1     8       0    2    0    0
101      1     8       2    0    0    0
102      1     3       0    0    0    2
103      1     6       0    0    0    4
104      1     1       0    0    3    0
105      1     7       6    0    0    0
106      1     7       0    0    0    7
107      1     4       0    0    0   10
108      1     3       0    0    0    6
109      1     2       0    0    0    6
110      1     1       0    0    0    7
111      1     8       0    0    0    8
112      1     9       0    0    2    0
113      1     1       3    0    0    0
114      1     9       0    0    0    2
115      1     3       2    0    0    0
116      1     6       0    0    0    6
117      1     7       0    0    0    6
118      1    10       0    0    3    0
119      1     7       0    0    9    0
120      1     2       0    0    0    9
121      1     2       8    0    0    0
122      1     0       0    0    0    0
************************************************************************
RESOURCEAVAILABILITIES:
  R 1  R 2  R 3  R 4
   24   22   20   28
************************************************************************
